EVRP-TW-SPD dataset generation/evrptwspd_instances/small_instances/Cplex10er/r201C10.txt
StringID	Type	x	y	Delivery	Pickup	ReadyTime	DueDate	ServiceTime
D0	d	35.0	35.0	0.0	0.0	0.0	1000.0	0.0
S0	f	35.0	35.0	0.0	0.0	0.0	1000.0	0.0
S5	f	28.0	62.0	0.0	0.0	0.0	1000.0	0.0
S13	f	21.0	22.0	0.0	0.0	0.0	1000.0	0.0
S15	f	34.0	16.0	0.0	0.0	0.0	1000.0	0.0
C77	c	53.0	43.0	11.358490566037737	2.6415094339622627	86.0	224.0	10.0
C50	c	47.0	47.0	13.0	0.0	507.0	599.0	10.0
C18	c	20.0	40.0	6.0	6.0	403.0	513.0	10.0
C28	c	41.0	37.0	14.439024390243903	1.5609756097560972	357.0	495.0	10.0
C32	c	35.0	69.0	11.666666666666668	11.333333333333332	501.0	621.0	10.0
C31	c	31.0	52.0	16.096153846153847	10.903846153846153	591.0	809.0	10.0
C84	c	11.0	31.0	2.4838709677419355	4.516129032258064	314.0	448.0	10.0
C72	c	47.0	16.0	8.51063829787234	16.48936170212766	104.0	252.0	10.0
C94	c	26.0	27.0	26.0	1.0	534.0	642.0	10.0
C100	c	18.0	18.0	17.0	0.0	118.0	148.0	10.0

Q Vehicle fuel tank capacity /60.63/
C Vehicle load capacity /1000.0/
r fuel consumption rate /1.0/
g inverse refueling rate /0.49/
v average Velocity /1.0/
